Minimize
  - 41 y_0 - 53 y_1 - 14 y_2 - 40 y_3 - 40 y_4 - 20 y_5 - 40 y_6 - 48 y_7
   - 10 y_8 - 21 y_9 - 50 y_10 - 14 y_11 - 39 y_12 - 28 y_13 - 50 y_14
   - 18 y_15 - 59 y_16 - 5 y_17 - 37 y_18 - 68 y_19 - 48 y_20 - 55 y_21
   - 44 y_22 - 42 y_23 - 30 y_24 - 41 y_25 - 16 y_26 - 34 y_27 - 40 y_28
   - 55 y_29 - 33 y_30 - 27 y_31 - 21 y_32 - 37 y_34 - 66 y_35 - 27 y_36
   - 10 y_37 - 17 y_38 - 35 y_39 - 40 y_40 - 13 y_41 - 4 y_42 - 18 y_43
   - 64 y_44 - 32 y_45 - 32 y_46 - 38 y_47 - 49 y_48 - 34 y_49 + 91 x_0_1
   + 50 x_0_2 + 33 x_0_3 + 20 x_0_4 + 26 x_0_6 + 46 x_0_8 + 15 x_0_10
   + 55 x_0_11 + 53 x_0_12 + 13 x_0_13 + 43 x_0_15 + 36 x_0_16 + 40 x_0_17
   + 78 x_0_18 + 40 x_0_19 + 58 x_0_21 + 83 x_0_23 + 68 x_0_24 + 14 x_0_25
   + 53 x_0_26 + 53 x_0_27 + 80 x_0_28 + 50 x_0_32 + 77 x_0_34 + 51 x_0_36
   + 35 x_0_37 + 52 x_0_38 + 76 x_0_39 + 23 x_0_40 + 44 x_0_41 + 38 x_0_42
   + 57 x_0_43 + 28 x_0_44 + 73 x_0_45 + 40 x_0_46 + 6 x_0_47 + 54 x_0_48
   + 41 x_1_2 + 73 x_1_3 + 81 x_1_4 + 65 x_1_5 + 92 x_1_6 + 54 x_1_8
   + 32 x_1_9 + 95 x_1_10 + 42 x_1_11 + 81 x_1_12 + 78 x_1_13 + 4 x_1_14
   + 65 x_1_15 + 52 x_1_17 + 120 x_1_19 + 95 x_1_20 + 100 x_1_21
   + 22 x_1_22 + 22 x_1_23 + 93 x_1_25 + 104 x_1_29 + 26 x_1_30 + 42 x_1_32
   + 56 x_1_37 + 55 x_1_38 + 23 x_1_39 + 93 x_1_40 + 47 x_1_41 + 35 x_1_43
   + 116 x_1_44 + 24 x_1_45 + 60 x_1_46 + 38 x_2_3 + 43 x_2_4 + 53 x_2_6
   + 62 x_2_7 + 21 x_2_8 + 9 x_2_9 + 56 x_2_10 + 14 x_2_11 + 51 x_2_12
   + 38 x_2_13 + 31 x_2_15 + 60 x_2_16 + 12 x_2_17 + 35 x_2_18 + 81 x_2_19
   + 55 x_2_20 + 69 x_2_21 + 30 x_2_22 + 35 x_2_23 + 53 x_2_25 + 38 x_2_28
   + 19 x_2_30 + 10 x_2_32 + 14 x_2_33 + 35 x_2_34 + 79 x_2_35 + 38 x_2_36
   + 15 x_2_37 + 7 x_2_41 + 14 x_2_42 + 75 x_2_44 + 25 x_2_45 + 28 x_2_46
   + 54 x_3_6 + 74 x_3_7 + 49 x_3_8 + 46 x_3_9 + 27 x_3_10 + 50 x_3_11
   + 71 x_3_12 + 72 x_3_14 + 22 x_3_16 + 73 x_3_18 + 73 x_3_19 + 31 x_3_20
   + 53 x_3_22 + 73 x_3_23 + 68 x_3_24 + 45 x_3_25 + 41 x_3_26 + 26 x_3_27
   + 75 x_3_29 + 32 x_3_32 + 63 x_3_36 + 29 x_3_37 + 56 x_3_38 + 52 x_3_40
   + 36 x_3_42 + 62 x_3_45 + 13 x_3_46 + 36 x_3_47 + 77 x_3_48 + 52 x_4_5
   + 43 x_4_6 + 65 x_4_7 + 48 x_4_8 + 52 x_4_9 + 15 x_4_10 + 65 x_4_12
   + 21 x_4_13 + 81 x_4_14 + 49 x_4_15 + 37 x_4_17 + 76 x_4_18 + 59 x_4_19
   + 17 x_4_20 + 74 x_4_21 + 64 x_4_22 + 78 x_4_23 + 32 x_4_25 + 47 x_4_26
   + 37 x_4_27 + 79 x_4_28 + 64 x_4_29 + 55 x_4_30 + 66 x_4_31 + 40 x_4_33
   + 76 x_4_34 + 56 x_4_35 + 30 x_4_37 + 40 x_4_40 + 36 x_4_42 + 47 x_4_44
   + 24 x_4_46 + 24 x_4_47 + 53 x_4_49 + 30 x_5_7 + 13 x_5_8 + 59 x_5_10
   + 24 x_5_11 + 18 x_5_12 + 62 x_5_14 + 25 x_5_17 + 38 x_5_18 + 54 x_5_20
   + 36 x_5_21 + 62 x_5_22 + 54 x_5_27 + 40 x_5_28 + 39 x_5_29 + 51 x_5_30
   + 41 x_5_32 + 38 x_5_34 + 58 x_5_35 + 7 x_5_36 + 29 x_5_37 + 10 x_5_38
   + 43 x_5_39 + 34 x_5_40 + 23 x_5_42 + 60 x_5_44 + 42 x_5_45 + 23 x_6_7
   + 39 x_6_8 + 41 x_6_10 + 24 x_6_13 + 62 x_6_16 + 42 x_6_17 + 70 x_6_18
   + 28 x_6_19 + 35 x_6_20 + 32 x_6_21 + 79 x_6_23 + 58 x_6_24 + 66 x_6_27
   + 72 x_6_28 + 21 x_6_29 + 72 x_6_30 + 48 x_6_31 + 58 x_6_32 + 40 x_6_33
   + 69 x_6_34 + 27 x_6_35 + 41 x_6_37 + 3 x_6_40 + 40 x_6_42 + 57 x_6_43
   + 71 x_6_45 + 57 x_6_46 + 18 x_6_49 + 42 x_7_8 + 68 x_7_9 + 44 x_7_13
   + 31 x_7_15 + 84 x_7_16 + 52 x_7_17 + 66 x_7_18 + 58 x_7_20 + 9 x_7_21
   + 91 x_7_22 + 77 x_7_23 + 80 x_7_27 + 67 x_7_28 + 12 x_7_29 + 69 x_7_32
   + 48 x_7_33 + 65 x_7_34 + 28 x_7_36 + 53 x_7_37 + 73 x_7_39 + 26 x_7_40
   + 60 x_7_41 + 47 x_7_44 + 72 x_7_45 + 73 x_7_46 + 43 x_7_47 + 6 x_7_48
   + 15 x_7_49 + 25 x_8_9 + 57 x_8_10 + 12 x_8_11 + 31 x_8_12 + 33 x_8_13
   + 51 x_8_14 + 14 x_8_17 + 32 x_8_18 + 67 x_8_19 + 54 x_8_20 + 49 x_8_22
   + 22 x_8_24 + 44 x_8_25 + 34 x_8_28 + 51 x_8_29 + 38 x_8_30 + 18 x_8_31
   + 29 x_8_32 + 10 x_8_33 + 31 x_8_34 + 66 x_8_35 + 18 x_8_36 + 7 x_8_38
   + 33 x_8_39 + 40 x_8_40 + 22 x_8_41 + 14 x_8_42 + 21 x_8_43 + 66 x_8_44
   + 31 x_8_45 + 42 x_8_46 + 43 x_8_48 + 29 x_8_49 + 65 x_9_10 + 15 x_9_11
   + 56 x_9_12 + 47 x_9_13 + 30 x_9_14 + 67 x_9_16 + 20 x_9_17 + 30 x_9_18
   + 89 x_9_19 + 64 x_9_20 + 74 x_9_21 + 24 x_9_22 + 27 x_9_23 + 62 x_9_25
   + 32 x_9_28 + 13 x_9_30 + 36 x_9_31 + 14 x_9_32 + 42 x_9_36 + 24 x_9_37
   + 30 x_9_38 + 61 x_9_40 + 15 x_9_41 + 22 x_9_42 + 4 x_9_43 + 84 x_9_44
   + 17 x_9_45 + 34 x_9_46 + 57 x_9_47 + 68 x_9_48 + 67 x_10_12
   + 56 x_10_15 + 22 x_10_16 + 48 x_10_17 + 87 x_10_18 + 50 x_10_19
   + 6 x_10_20 + 73 x_10_21 + 78 x_10_22 + 91 x_10_23 + 28 x_10_25
   + 90 x_10_28 + 61 x_10_29 + 69 x_10_30 + 74 x_10_31 + 54 x_10_32
   + 50 x_10_33 + 87 x_10_34 + 47 x_10_35 + 65 x_10_36 + 42 x_10_37
   + 64 x_10_38 + 38 x_10_40 + 50 x_10_41 + 63 x_10_43 + 38 x_10_46
   + 21 x_10_47 + 42 x_11_12 + 41 x_11_13 + 39 x_11_14 + 71 x_11_16
   + 16 x_11_17 + 24 x_11_18 + 79 x_11_19 + 60 x_11_21 + 38 x_11_22
   + 28 x_11_23 + 54 x_11_25 + 13 x_11_26 + 38 x_11_27 + 26 x_11_28
   + 28 x_11_30 + 22 x_11_31 + 23 x_11_32 + 14 x_11_33 + 23 x_11_34
   + 15 x_11_38 + 22 x_11_39 + 19 x_11_41 + 10 x_11_43 + 76 x_11_44
   + 54 x_11_48 + 78 x_12_14 + 21 x_12_15 + 85 x_12_16 + 43 x_12_17
   + 52 x_12_19 + 62 x_12_20 + 80 x_12_22 + 42 x_12_25 + 27 x_12_29
   + 69 x_12_30 + 26 x_12_31 + 39 x_12_33 + 50 x_12_34 + 14 x_12_36
   + 27 x_12_38 + 51 x_12_41 + 51 x_12_43 + 58 x_12_44 + 58 x_12_45
   + 68 x_12_46 + 41 x_13_16 + 27 x_13_17 + 64 x_13_18 + 46 x_13_19
   + 21 x_13_20 + 53 x_13_21 + 65 x_13_22 + 70 x_13_23 + 55 x_13_24
   + 41 x_13_26 + 44 x_13_27 + 67 x_13_28 + 44 x_13_29 + 55 x_13_30
   + 39 x_13_32 + 28 x_13_33 + 40 x_13_36 + 23 x_13_37 + 39 x_13_38
   + 63 x_13_39 + 22 x_13_40 + 32 x_13_41 + 38 x_13_44 + 60 x_13_45
   + 33 x_13_46 + 11 x_13_47 + 48 x_13_48 + 32 x_13_49 + 61 x_14_15
   + 94 x_14_16 + 50 x_14_17 + 31 x_14_18 + 117 x_14_19 + 94 x_14_20
   + 24 x_14_22 + 18 x_14_23 + 91 x_14_25 + 36 x_14_26 + 48 x_14_27
   + 32 x_14_28 + 101 x_14_29 + 26 x_14_30 + 52 x_14_31 + 41 x_14_32
   + 32 x_14_34 + 116 x_14_35 + 54 x_14_37 + 52 x_14_38 + 19 x_14_39
   + 90 x_14_40 + 52 x_14_42 + 33 x_14_43 + 114 x_14_44 + 20 x_14_45
   + 87 x_14_47 + 91 x_14_48 + 79 x_14_49 + 58 x_15_19 + 51 x_15_20
   + 38 x_15_21 + 60 x_15_22 + 49 x_15_23 + 27 x_15_24 + 37 x_15_25
   + 33 x_15_26 + 52 x_15_27 + 41 x_15_28 + 40 x_15_29 + 49 x_15_30
   + 19 x_15_31 + 39 x_15_32 + 18 x_15_33 + 10 x_15_36 + 26 x_15_37
   + 11 x_15_38 + 43 x_15_39 + 32 x_15_40 + 31 x_15_41 + 21 x_15_42
   + 32 x_15_43 + 58 x_15_44 + 42 x_15_45 + 48 x_15_46 + 38 x_15_47
   + 32 x_15_48 + 18 x_15_49 + 55 x_16_17 + 94 x_16_18 + 73 x_16_19
   + 73 x_16_22 + 94 x_16_23 + 88 x_16_24 + 63 x_16_26 + 97 x_16_28
   + 82 x_16_29 + 86 x_16_31 + 54 x_16_32 + 59 x_16_33 + 49 x_16_37
   + 75 x_16_38 + 59 x_16_40 + 53 x_16_41 + 58 x_16_44 + 84 x_16_45
   + 41 x_16_47 + 89 x_16_48 + 73 x_16_49 + 40 x_17_18 + 69 x_17_19
   + 46 x_17_20 + 59 x_17_21 + 43 x_17_23 + 33 x_17_24 + 14 x_17_26
   + 29 x_17_27 + 42 x_17_28 + 58 x_17_29 + 30 x_17_30 + 32 x_17_31
   + 17 x_17_32 + 5 x_17_33 + 6 x_17_37 + 22 x_17_38 + 36 x_17_39
   + 42 x_17_40 + 9 x_17_41 + 17 x_17_43 + 64 x_17_44 + 33 x_17_45
   + 38 x_17_47 + 53 x_17_48 + 85 x_18_20 + 14 x_18_23 + 13 x_18_24
   + 56 x_18_27 + 3 x_18_28 + 24 x_18_31 + 43 x_18_32 + 37 x_18_33
   + x_18_34 + 97 x_18_35 + 38 x_18_36 + 46 x_18_37 + 14 x_18_39
   + 71 x_18_40 + 41 x_18_41 + 41 x_18_42 + 97 x_18_44 + 16 x_18_45
   + 74 x_18_47 + 64 x_18_48 + 45 x_19_20 + 43 x_19_21 + 106 x_19_23
   + 85 x_19_24 + 29 x_19_25 + 90 x_19_27 + 99 x_19_28 + 27 x_19_29
   + 74 x_19_31 + 84 x_19_32 + 68 x_19_33 + 96 x_19_34 + 4 x_19_35
   + 61 x_19_36 + 67 x_19_37 + 69 x_19_38 + 101 x_19_39 + 27 x_19_40
   + 67 x_19_42 + 85 x_19_43 + 16 x_19_44 + 79 x_19_46 + 43 x_19_48
   + 42 x_19_49 + 67 x_20_21 + 79 x_20_22 + 89 x_20_23 + 76 x_20_24
   + 22 x_20_25 + 58 x_20_26 + 87 x_20_28 + 69 x_20_30 + 70 x_20_31
   + 48 x_20_33 + 84 x_20_34 + 40 x_20_37 + 60 x_20_38 + 82 x_20_39
   + 49 x_20_41 + 45 x_20_42 + 31 x_20_44 + 79 x_20_45 + 40 x_20_46
   + 15 x_20_47 + 63 x_20_48 + 49 x_20_49 + 56 x_21_24 + 71 x_21_26
   + 88 x_21_27 + 70 x_21_28 + 87 x_21_30 + 45 x_21_31 + 77 x_21_32
   + 55 x_21_33 + 46 x_21_35 + 33 x_21_36 + 61 x_21_37 + 46 x_21_38
   + 77 x_21_39 + 36 x_21_40 + 68 x_21_41 + 70 x_21_43 + 82 x_21_46
   + 52 x_21_47 + 6 x_21_48 + 23 x_21_49 + 35 x_22_23 + 81 x_22_25
   + 27 x_22_27 + 47 x_22_28 + 99 x_22_29 + 58 x_22_31 + 26 x_22_32
   + 44 x_22_33 + 45 x_22_34 + 66 x_22_36 + 43 x_22_37 + 53 x_22_38
   + 32 x_22_39 + 83 x_22_40 + 28 x_22_43 + 103 x_22_44 + 29 x_22_45
   + 40 x_22_46 + 25 x_23_24 + 82 x_23_25 + 32 x_23_26 + 88 x_23_29
   + 31 x_23_30 + 37 x_23_31 + 14 x_23_34 + 106 x_23_35 + 49 x_23_36
   + 48 x_23_37 + 7 x_23_39 + 80 x_23_40 + 41 x_23_41 + 27 x_23_43
   + 105 x_23_44 + 61 x_23_46 + 80 x_23_47 + 66 x_23_49 + 14 x_24_28
   + 64 x_24_29 + 42 x_24_30 + 30 x_24_33 + 12 x_24_34 + 84 x_24_35
   + 25 x_24_36 + 39 x_24_37 + 17 x_24_38 + 22 x_24_39 + 59 x_24_40
   + 33 x_24_42 + 27 x_24_43 + 23 x_24_45 + 59 x_24_46 + 64 x_24_47
   + 56 x_25_26 + 61 x_25_27 + 32 x_25_29 + 71 x_25_30 + 56 x_25_31
   + 55 x_25_32 + 41 x_25_33 + 44 x_25_36 + 47 x_25_38 + 76 x_25_39
   + 48 x_25_41 + 40 x_25_42 + 73 x_25_45 + 50 x_25_46 + 35 x_26_28
   + 71 x_26_29 + 17 x_26_30 + 35 x_26_31 + 11 x_26_32 + 16 x_26_33
   + 32 x_26_34 + 27 x_26_38 + 56 x_26_40 + 10 x_26_41 + 17 x_26_42
   + 5 x_26_43 + 78 x_26_44 + 30 x_26_46 + 51 x_26_47 + 64 x_26_48
   + 84 x_27_29 + 22 x_27_30 + 14 x_27_32 + 34 x_27_33 + 87 x_27_35
   + 61 x_27_36 + 27 x_27_37 + 65 x_27_40 + 31 x_27_42 + 29 x_27_43
   + 81 x_27_44 + 42 x_27_45 + 53 x_27_47 + 82 x_27_48 + 65 x_27_49
   + 78 x_28_29 + 25 x_28_31 + 46 x_28_32 + 40 x_28_33 + 3 x_28_34
   + 39 x_28_36 + 48 x_28_37 + 30 x_28_38 + 15 x_28_39 + 73 x_28_40
   + 44 x_28_41 + 43 x_28_42 + 31 x_28_43 + 99 x_28_44 + 18 x_28_45
   + 65 x_28_46 + 65 x_28_48 + 87 x_29_30 + 52 x_29_31 + 75 x_29_32
   + 76 x_29_34 + 39 x_29_36 + 50 x_29_38 + 83 x_29_39 + 66 x_29_41
   + 56 x_29_42 + 38 x_29_44 + 81 x_29_45 + 76 x_29_46 + 41 x_29_47
   + 22 x_29_49 + 49 x_30_31 + 33 x_30_33 + 38 x_30_34 + 97 x_30_35
   + 55 x_30_36 + 32 x_30_37 + 43 x_30_38 + 26 x_30_39 + 72 x_30_40
   + 32 x_30_42 + 17 x_30_43 + 93 x_30_44 + 23 x_30_45 + 33 x_30_46
   + 65 x_30_47 + 66 x_30_49 + 44 x_31_32 + 27 x_31_33 + 74 x_31_35
   + 14 x_31_36 + 33 x_31_39 + 50 x_31_40 + 38 x_31_41 + 31 x_31_42
   + 76 x_31_44 + 33 x_31_45 + 57 x_31_47 + 21 x_32_33 + 47 x_32_36
   + 17 x_32_37 + 34 x_32_39 + 57 x_32_40 + 9 x_32_41 + 19 x_32_42
   + 15 x_32_43 + 31 x_32_45 + 20 x_32_46 + 49 x_32_47 + 70 x_32_48
   + 37 x_33_34 + 66 x_33_35 + 27 x_33_36 + 10 x_33_37 + 17 x_33_38
   + 35 x_33_39 + 40 x_33_40 + 13 x_33_41 + 49 x_33_48 + 37 x_34_36
   + 45 x_34_37 + 28 x_34_38 + 14 x_34_39 + 40 x_34_42 + 28 x_34_43
   + 62 x_34_46 + 73 x_34_47 + 63 x_34_48 + 61 x_35_36 + 65 x_35_37
   + 65 x_35_42 + 84 x_35_43 + 76 x_35_46 + 34 x_35_47 + 42 x_35_49
   + 36 x_36_37 + 13 x_36_38 + 45 x_36_39 + 37 x_36_40 + 30 x_36_42
   + 38 x_36_43 + 63 x_36_44 + 44 x_36_45 + 46 x_36_47 + 18 x_36_49
   + 27 x_37_38 + 40 x_37_40 + 9 x_37_41 + 6 x_37_42 + 61 x_37_44
   + 23 x_37_46 + 33 x_37_47 + 55 x_37_48 + 39 x_37_49 + 33 x_38_39
   + 43 x_38_40 + 21 x_38_42 + 25 x_38_43 + 69 x_38_44 + 32 x_38_45
   + 49 x_38_46 + 47 x_38_47 + 28 x_38_49 + 74 x_39_40 + 35 x_39_41
   + 38 x_39_42 + 98 x_39_44 + 4 x_39_45 + 73 x_39_47 + 72 x_39_48
   + 61 x_39_49 + 49 x_40_41 + 40 x_40_42 + 58 x_40_43 + 26 x_40_44
   + 71 x_40_45 + 17 x_40_47 + 32 x_40_48 + 21 x_40_49 + 70 x_41_44
   + 31 x_41_45 + 43 x_41_47 + 62 x_42_44 + 35 x_42_45 + 29 x_42_46
   + 51 x_42_48 + 35 x_42_49 + 81 x_43_44 + 17 x_43_45 + 35 x_43_46
   + 64 x_43_48 + 49 x_43_49 + 68 x_44_46 + 28 x_44_47 + 70 x_45_47
   + 71 x_45_48 + 59 x_45_49 + 42 x_46_47 + 76 x_46_48 + 59 x_46_49
   + 48 x_47_48 + 17 x_48_49 + 1697 Constant
Subject To
 c_0: y_42 = 1
 c_1_0: y_0 >= 1
 c_1_1: y_1 + y_14 >= 1
 c_1_2: y_2 + y_26 >= 1
 c_1_3: y_3 >= 1
 c_1_4: y_4 >= 1
 c_1_5: y_5 + y_15 >= 1
 c_1_6: y_6 + y_40 >= 1
 c_1_7: y_7 >= 1
 c_1_8: y_8 >= 1
 c_1_9: y_9 + y_43 >= 1
 c_1_10: y_10 >= 1
 c_1_11: y_11 >= 1
 c_1_12: y_12 >= 1
 c_1_13: y_13 >= 1
 c_1_14: y_1 + y_14 >= 1
 c_1_15: y_5 + y_15 >= 1
 c_1_16: y_16 >= 1
 c_1_17: y_17 + y_33 + y_42 >= 1
 c_1_18: y_18 + y_28 + y_34 >= 1
 c_1_19: y_19 + y_35 >= 1
 c_1_20: y_20 >= 1
 c_1_21: y_21 >= 1
 c_1_22: y_22 >= 1
 c_1_23: y_23 >= 1
 c_1_24: y_24 >= 1
 c_1_25: y_25 >= 1
 c_1_26: y_2 + y_26 + y_43 >= 1
 c_1_27: y_27 >= 1
 c_1_28: y_18 + y_28 + y_34 >= 1
 c_1_29: y_29 >= 1
 c_1_30: y_30 >= 1
 c_1_31: y_31 >= 1
 c_1_32: y_32 >= 1
 c_1_33: y_17 + y_33 + y_42 >= 1
 c_1_34: y_18 + y_28 + y_34 >= 1
 c_1_35: y_19 + y_35 >= 1
 c_1_36: y_36 >= 1
 c_1_37: y_37 >= 1
 c_1_38: y_38 >= 1
 c_1_39: y_39 + y_45 >= 1
 c_1_40: y_6 + y_40 >= 1
 c_1_41: y_41 >= 1
 c_1_42: y_17 + y_33 + y_42 >= 1
 c_1_43: y_9 + y_26 + y_43 >= 1
 c_1_44: y_44 >= 1
 c_1_45: y_39 + y_45 >= 1
 c_1_46: y_46 >= 1
 c_1_47: y_47 >= 1
 c_1_48: y_48 >= 1
 c_1_49: y_49 >= 1
 c_2_0: - 2 y_0 + x_0_1 + x_0_2 + x_0_3 + x_0_4 + x_0_6 + x_0_8 + x_0_10
   + x_0_11 + x_0_12 + x_0_13 + x_0_15 + x_0_16 + x_0_17 + x_0_18 + x_0_19
   + x_0_21 + x_0_23 + x_0_24 + x_0_25 + x_0_26 + x_0_27 + x_0_28 + x_0_32
   + x_0_34 + x_0_36 + x_0_37 + x_0_38 + x_0_39 + x_0_40 + x_0_41 + x_0_42
   + x_0_43 + x_0_44 + x_0_45 + x_0_46 + x_0_47 + x_0_48 = 0
 c_2_1: - 2 y_1 + x_0_1 + x_1_2 + x_1_3 + x_1_4 + x_1_5 + x_1_6 + x_1_8
   + x_1_9 + x_1_10 + x_1_11 + x_1_12 + x_1_13 + x_1_14 + x_1_15 + x_1_17
   + x_1_19 + x_1_20 + x_1_21 + x_1_22 + x_1_23 + x_1_25 + x_1_29 + x_1_30
   + x_1_32 + x_1_37 + x_1_38 + x_1_39 + x_1_40 + x_1_41 + x_1_43 + x_1_44
   + x_1_45 + x_1_46 = 0
 c_2_2: - 2 y_2 + x_0_2 + x_1_2 + x_2_3 + x_2_4 + x_2_6 + x_2_7 + x_2_8
   + x_2_9 + x_2_10 + x_2_11 + x_2_12 + x_2_13 + x_2_15 + x_2_16 + x_2_17
   + x_2_18 + x_2_19 + x_2_20 + x_2_21 + x_2_22 + x_2_23 + x_2_25 + x_2_28
   + x_2_30 + x_2_32 + x_2_33 + x_2_34 + x_2_35 + x_2_36 + x_2_37 + x_2_41
   + x_2_42 + x_2_44 + x_2_45 + x_2_46 = 0
 c_2_3: - 2 y_3 + x_0_3 + x_1_3 + x_2_3 + x_3_6 + x_3_7 + x_3_8 + x_3_9
   + x_3_10 + x_3_11 + x_3_12 + x_3_14 + x_3_16 + x_3_18 + x_3_19 + x_3_20
   + x_3_22 + x_3_23 + x_3_24 + x_3_25 + x_3_26 + x_3_27 + x_3_29 + x_3_32
   + x_3_36 + x_3_37 + x_3_38 + x_3_40 + x_3_42 + x_3_45 + x_3_46 + x_3_47
   + x_3_48 = 0
 c_2_4: - 2 y_4 + x_0_4 + x_1_4 + x_2_4 + x_4_5 + x_4_6 + x_4_7 + x_4_8
   + x_4_9 + x_4_10 + x_4_12 + x_4_13 + x_4_14 + x_4_15 + x_4_17 + x_4_18
   + x_4_19 + x_4_20 + x_4_21 + x_4_22 + x_4_23 + x_4_25 + x_4_26 + x_4_27
   + x_4_28 + x_4_29 + x_4_30 + x_4_31 + x_4_33 + x_4_34 + x_4_35 + x_4_37
   + x_4_40 + x_4_42 + x_4_44 + x_4_46 + x_4_47 + x_4_49 = 0
 c_2_5: - 2 y_5 + x_1_5 + x_4_5 + x_5_7 + x_5_8 + x_5_10 + x_5_11 + x_5_12
   + x_5_14 + x_5_17 + x_5_18 + x_5_20 + x_5_21 + x_5_22 + x_5_27 + x_5_28
   + x_5_29 + x_5_30 + x_5_32 + x_5_34 + x_5_35 + x_5_36 + x_5_37 + x_5_38
   + x_5_39 + x_5_40 + x_5_42 + x_5_44 + x_5_45 = 0
 c_2_6: - 2 y_6 + x_0_6 + x_1_6 + x_2_6 + x_3_6 + x_4_6 + x_6_7 + x_6_8
   + x_6_10 + x_6_13 + x_6_16 + x_6_17 + x_6_18 + x_6_19 + x_6_20 + x_6_21
   + x_6_23 + x_6_24 + x_6_27 + x_6_28 + x_6_29 + x_6_30 + x_6_31 + x_6_32
   + x_6_33 + x_6_34 + x_6_35 + x_6_37 + x_6_40 + x_6_42 + x_6_43 + x_6_45
   + x_6_46 + x_6_49 = 0
 c_2_7: - 2 y_7 + x_2_7 + x_3_7 + x_4_7 + x_5_7 + x_6_7 + x_7_8 + x_7_9
   + x_7_13 + x_7_15 + x_7_16 + x_7_17 + x_7_18 + x_7_20 + x_7_21 + x_7_22
   + x_7_23 + x_7_27 + x_7_28 + x_7_29 + x_7_32 + x_7_33 + x_7_34 + x_7_36
   + x_7_37 + x_7_39 + x_7_40 + x_7_41 + x_7_44 + x_7_45 + x_7_46 + x_7_47
   + x_7_48 + x_7_49 = 0
 c_2_8: - 2 y_8 + x_0_8 + x_1_8 + x_2_8 + x_3_8 + x_4_8 + x_5_8 + x_6_8
   + x_7_8 + x_8_9 + x_8_10 + x_8_11 + x_8_12 + x_8_13 + x_8_14 + x_8_17
   + x_8_18 + x_8_19 + x_8_20 + x_8_22 + x_8_24 + x_8_25 + x_8_28 + x_8_29
   + x_8_30 + x_8_31 + x_8_32 + x_8_33 + x_8_34 + x_8_35 + x_8_36 + x_8_38
   + x_8_39 + x_8_40 + x_8_41 + x_8_42 + x_8_43 + x_8_44 + x_8_45 + x_8_46
   + x_8_48 + x_8_49 = 0
 c_2_9: - 2 y_9 + x_1_9 + x_2_9 + x_3_9 + x_4_9 + x_7_9 + x_8_9 + x_9_10
   + x_9_11 + x_9_12 + x_9_13 + x_9_14 + x_9_16 + x_9_17 + x_9_18 + x_9_19
   + x_9_20 + x_9_21 + x_9_22 + x_9_23 + x_9_25 + x_9_28 + x_9_30 + x_9_31
   + x_9_32 + x_9_36 + x_9_37 + x_9_38 + x_9_40 + x_9_41 + x_9_42 + x_9_43
   + x_9_44 + x_9_45 + x_9_46 + x_9_47 + x_9_48 = 0
 c_2_10: - 2 y_10 + x_0_10 + x_1_10 + x_2_10 + x_3_10 + x_4_10 + x_5_10
   + x_6_10 + x_8_10 + x_9_10 + x_10_12 + x_10_15 + x_10_16 + x_10_17
   + x_10_18 + x_10_19 + x_10_20 + x_10_21 + x_10_22 + x_10_23 + x_10_25
   + x_10_28 + x_10_29 + x_10_30 + x_10_31 + x_10_32 + x_10_33 + x_10_34
   + x_10_35 + x_10_36 + x_10_37 + x_10_38 + x_10_40 + x_10_41 + x_10_43
   + x_10_46 + x_10_47 = 0
 c_2_11: - 2 y_11 + x_0_11 + x_1_11 + x_2_11 + x_3_11 + x_5_11 + x_8_11
   + x_9_11 + x_11_12 + x_11_13 + x_11_14 + x_11_16 + x_11_17 + x_11_18
   + x_11_19 + x_11_21 + x_11_22 + x_11_23 + x_11_25 + x_11_26 + x_11_27
   + x_11_28 + x_11_30 + x_11_31 + x_11_32 + x_11_33 + x_11_34 + x_11_38
   + x_11_39 + x_11_41 + x_11_43 + x_11_44 + x_11_48 = 0
 c_2_12: - 2 y_12 + x_0_12 + x_1_12 + x_2_12 + x_3_12 + x_4_12 + x_5_12
   + x_8_12 + x_9_12 + x_10_12 + x_11_12 + x_12_14 + x_12_15 + x_12_16
   + x_12_17 + x_12_19 + x_12_20 + x_12_22 + x_12_25 + x_12_29 + x_12_30
   + x_12_31 + x_12_33 + x_12_34 + x_12_36 + x_12_38 + x_12_41 + x_12_43
   + x_12_44 + x_12_45 + x_12_46 = 0
 c_2_13: - 2 y_13 + x_0_13 + x_1_13 + x_2_13 + x_4_13 + x_6_13 + x_7_13
   + x_8_13 + x_9_13 + x_11_13 + x_13_16 + x_13_17 + x_13_18 + x_13_19
   + x_13_20 + x_13_21 + x_13_22 + x_13_23 + x_13_24 + x_13_26 + x_13_27
   + x_13_28 + x_13_29 + x_13_30 + x_13_32 + x_13_33 + x_13_36 + x_13_37
   + x_13_38 + x_13_39 + x_13_40 + x_13_41 + x_13_44 + x_13_45 + x_13_46
   + x_13_47 + x_13_48 + x_13_49 = 0
 c_2_14: - 2 y_14 + x_1_14 + x_3_14 + x_4_14 + x_5_14 + x_8_14 + x_9_14
   + x_11_14 + x_12_14 + x_14_15 + x_14_16 + x_14_17 + x_14_18 + x_14_19
   + x_14_20 + x_14_22 + x_14_23 + x_14_25 + x_14_26 + x_14_27 + x_14_28
   + x_14_29 + x_14_30 + x_14_31 + x_14_32 + x_14_34 + x_14_35 + x_14_37
   + x_14_38 + x_14_39 + x_14_40 + x_14_42 + x_14_43 + x_14_44 + x_14_45
   + x_14_47 + x_14_48 + x_14_49 = 0
 c_2_15: - 2 y_15 + x_0_15 + x_1_15 + x_2_15 + x_4_15 + x_7_15 + x_10_15
   + x_12_15 + x_14_15 + x_15_19 + x_15_20 + x_15_21 + x_15_22 + x_15_23
   + x_15_24 + x_15_25 + x_15_26 + x_15_27 + x_15_28 + x_15_29 + x_15_30
   + x_15_31 + x_15_32 + x_15_33 + x_15_36 + x_15_37 + x_15_38 + x_15_39
   + x_15_40 + x_15_41 + x_15_42 + x_15_43 + x_15_44 + x_15_45 + x_15_46
   + x_15_47 + x_15_48 + x_15_49 = 0
 c_2_16: - 2 y_16 + x_0_16 + x_2_16 + x_3_16 + x_6_16 + x_7_16 + x_9_16
   + x_10_16 + x_11_16 + x_12_16 + x_13_16 + x_14_16 + x_16_17 + x_16_18
   + x_16_19 + x_16_22 + x_16_23 + x_16_24 + x_16_26 + x_16_28 + x_16_29
   + x_16_31 + x_16_32 + x_16_33 + x_16_37 + x_16_38 + x_16_40 + x_16_41
   + x_16_44 + x_16_45 + x_16_47 + x_16_48 + x_16_49 = 0
 c_2_17: - 2 y_17 + x_0_17 + x_1_17 + x_2_17 + x_4_17 + x_5_17 + x_6_17
   + x_7_17 + x_8_17 + x_9_17 + x_10_17 + x_11_17 + x_12_17 + x_13_17
   + x_14_17 + x_16_17 + x_17_18 + x_17_19 + x_17_20 + x_17_21 + x_17_23
   + x_17_24 + x_17_26 + x_17_27 + x_17_28 + x_17_29 + x_17_30 + x_17_31
   + x_17_32 + x_17_33 + x_17_37 + x_17_38 + x_17_39 + x_17_40 + x_17_41
   + x_17_43 + x_17_44 + x_17_45 + x_17_47 + x_17_48 = 0
 c_2_18: - 2 y_18 + x_0_18 + x_2_18 + x_3_18 + x_4_18 + x_5_18 + x_6_18
   + x_7_18 + x_8_18 + x_9_18 + x_10_18 + x_11_18 + x_13_18 + x_14_18
   + x_16_18 + x_17_18 + x_18_20 + x_18_23 + x_18_24 + x_18_27 + x_18_28
   + x_18_31 + x_18_32 + x_18_33 + x_18_34 + x_18_35 + x_18_36 + x_18_37
   + x_18_39 + x_18_40 + x_18_41 + x_18_42 + x_18_44 + x_18_45 + x_18_47
   + x_18_48 = 0
 c_2_19: - 2 y_19 + x_0_19 + x_1_19 + x_2_19 + x_3_19 + x_4_19 + x_6_19
   + x_8_19 + x_9_19 + x_10_19 + x_11_19 + x_12_19 + x_13_19 + x_14_19
   + x_15_19 + x_16_19 + x_17_19 + x_19_20 + x_19_21 + x_19_23 + x_19_24
   + x_19_25 + x_19_27 + x_19_28 + x_19_29 + x_19_31 + x_19_32 + x_19_33
   + x_19_34 + x_19_35 + x_19_36 + x_19_37 + x_19_38 + x_19_39 + x_19_40
   + x_19_42 + x_19_43 + x_19_44 + x_19_46 + x_19_48 + x_19_49 = 0
 c_2_20: - 2 y_20 + x_1_20 + x_2_20 + x_3_20 + x_4_20 + x_5_20 + x_6_20
   + x_7_20 + x_8_20 + x_9_20 + x_10_20 + x_12_20 + x_13_20 + x_14_20
   + x_15_20 + x_17_20 + x_18_20 + x_19_20 + x_20_21 + x_20_22 + x_20_23
   + x_20_24 + x_20_25 + x_20_26 + x_20_28 + x_20_30 + x_20_31 + x_20_33
   + x_20_34 + x_20_37 + x_20_38 + x_20_39 + x_20_41 + x_20_42 + x_20_44
   + x_20_45 + x_20_46 + x_20_47 + x_20_48 + x_20_49 = 0
 c_2_21: - 2 y_21 + x_0_21 + x_1_21 + x_2_21 + x_4_21 + x_5_21 + x_6_21
   + x_7_21 + x_9_21 + x_10_21 + x_11_21 + x_13_21 + x_15_21 + x_17_21
   + x_19_21 + x_20_21 + x_21_24 + x_21_26 + x_21_27 + x_21_28 + x_21_30
   + x_21_31 + x_21_32 + x_21_33 + x_21_35 + x_21_36 + x_21_37 + x_21_38
   + x_21_39 + x_21_40 + x_21_41 + x_21_43 + x_21_46 + x_21_47 + x_21_48
   + x_21_49 = 0
 c_2_22: - 2 y_22 + x_1_22 + x_2_22 + x_3_22 + x_4_22 + x_5_22 + x_7_22
   + x_8_22 + x_9_22 + x_10_22 + x_11_22 + x_12_22 + x_13_22 + x_14_22
   + x_15_22 + x_16_22 + x_20_22 + x_22_23 + x_22_25 + x_22_27 + x_22_28
   + x_22_29 + x_22_31 + x_22_32 + x_22_33 + x_22_34 + x_22_36 + x_22_37
   + x_22_38 + x_22_39 + x_22_40 + x_22_43 + x_22_44 + x_22_45 + x_22_46
   = 0
 c_2_23: - 2 y_23 + x_0_23 + x_1_23 + x_2_23 + x_3_23 + x_4_23 + x_6_23
   + x_7_23 + x_9_23 + x_10_23 + x_11_23 + x_13_23 + x_14_23 + x_15_23
   + x_16_23 + x_17_23 + x_18_23 + x_19_23 + x_20_23 + x_22_23 + x_23_24
   + x_23_25 + x_23_26 + x_23_29 + x_23_30 + x_23_31 + x_23_34 + x_23_35
   + x_23_36 + x_23_37 + x_23_39 + x_23_40 + x_23_41 + x_23_43 + x_23_44
   + x_23_46 + x_23_47 + x_23_49 = 0
 c_2_24: - 2 y_24 + x_0_24 + x_3_24 + x_6_24 + x_8_24 + x_13_24 + x_15_24
   + x_16_24 + x_17_24 + x_18_24 + x_19_24 + x_20_24 + x_21_24 + x_23_24
   + x_24_28 + x_24_29 + x_24_30 + x_24_33 + x_24_34 + x_24_35 + x_24_36
   + x_24_37 + x_24_38 + x_24_39 + x_24_40 + x_24_42 + x_24_43 + x_24_45
   + x_24_46 + x_24_47 = 0
 c_2_25: - 2 y_25 + x_0_25 + x_1_25 + x_2_25 + x_3_25 + x_4_25 + x_8_25
   + x_9_25 + x_10_25 + x_11_25 + x_12_25 + x_14_25 + x_15_25 + x_19_25
   + x_20_25 + x_22_25 + x_23_25 + x_25_26 + x_25_27 + x_25_29 + x_25_30
   + x_25_31 + x_25_32 + x_25_33 + x_25_36 + x_25_38 + x_25_39 + x_25_41
   + x_25_42 + x_25_45 + x_25_46 = 0
 c_2_26: - 2 y_26 + x_0_26 + x_3_26 + x_4_26 + x_11_26 + x_13_26 + x_14_26
   + x_15_26 + x_16_26 + x_17_26 + x_20_26 + x_21_26 + x_23_26 + x_25_26
   + x_26_28 + x_26_29 + x_26_30 + x_26_31 + x_26_32 + x_26_33 + x_26_34
   + x_26_38 + x_26_40 + x_26_41 + x_26_42 + x_26_43 + x_26_44 + x_26_46
   + x_26_47 + x_26_48 = 0
 c_2_27: - 2 y_27 + x_0_27 + x_3_27 + x_4_27 + x_5_27 + x_6_27 + x_7_27
   + x_11_27 + x_13_27 + x_14_27 + x_15_27 + x_17_27 + x_18_27 + x_19_27
   + x_21_27 + x_22_27 + x_25_27 + x_27_29 + x_27_30 + x_27_32 + x_27_33
   + x_27_35 + x_27_36 + x_27_37 + x_27_40 + x_27_42 + x_27_43 + x_27_44
   + x_27_45 + x_27_47 + x_27_48 + x_27_49 = 0
 c_2_28: - 2 y_28 + x_0_28 + x_2_28 + x_4_28 + x_5_28 + x_6_28 + x_7_28
   + x_8_28 + x_9_28 + x_10_28 + x_11_28 + x_13_28 + x_14_28 + x_15_28
   + x_16_28 + x_17_28 + x_18_28 + x_19_28 + x_20_28 + x_21_28 + x_22_28
   + x_24_28 + x_26_28 + x_28_29 + x_28_31 + x_28_32 + x_28_33 + x_28_34
   + x_28_36 + x_28_37 + x_28_38 + x_28_39 + x_28_40 + x_28_41 + x_28_42
   + x_28_43 + x_28_44 + x_28_45 + x_28_46 + x_28_48 = 0
 c_2_29: - 2 y_29 + x_1_29 + x_3_29 + x_4_29 + x_5_29 + x_6_29 + x_7_29
   + x_8_29 + x_10_29 + x_12_29 + x_13_29 + x_14_29 + x_15_29 + x_16_29
   + x_17_29 + x_19_29 + x_22_29 + x_23_29 + x_24_29 + x_25_29 + x_26_29
   + x_27_29 + x_28_29 + x_29_30 + x_29_31 + x_29_32 + x_29_34 + x_29_36
   + x_29_38 + x_29_39 + x_29_41 + x_29_42 + x_29_44 + x_29_45 + x_29_46
   + x_29_47 + x_29_49 = 0
 c_2_30: - 2 y_30 + x_1_30 + x_2_30 + x_4_30 + x_5_30 + x_6_30 + x_8_30
   + x_9_30 + x_10_30 + x_11_30 + x_12_30 + x_13_30 + x_14_30 + x_15_30
   + x_17_30 + x_20_30 + x_21_30 + x_23_30 + x_24_30 + x_25_30 + x_26_30
   + x_27_30 + x_29_30 + x_30_31 + x_30_33 + x_30_34 + x_30_35 + x_30_36
   + x_30_37 + x_30_38 + x_30_39 + x_30_40 + x_30_42 + x_30_43 + x_30_44
   + x_30_45 + x_30_46 + x_30_47 + x_30_49 = 0
 c_2_31: - 2 y_31 + x_4_31 + x_6_31 + x_8_31 + x_9_31 + x_10_31 + x_11_31
   + x_12_31 + x_14_31 + x_15_31 + x_16_31 + x_17_31 + x_18_31 + x_19_31
   + x_20_31 + x_21_31 + x_22_31 + x_23_31 + x_25_31 + x_26_31 + x_28_31
   + x_29_31 + x_30_31 + x_31_32 + x_31_33 + x_31_35 + x_31_36 + x_31_39
   + x_31_40 + x_31_41 + x_31_42 + x_31_44 + x_31_45 + x_31_47 = 0
 c_2_32: - 2 y_32 + x_0_32 + x_1_32 + x_2_32 + x_3_32 + x_5_32 + x_6_32
   + x_7_32 + x_8_32 + x_9_32 + x_10_32 + x_11_32 + x_13_32 + x_14_32
   + x_15_32 + x_16_32 + x_17_32 + x_18_32 + x_19_32 + x_21_32 + x_22_32
   + x_25_32 + x_26_32 + x_27_32 + x_28_32 + x_29_32 + x_31_32 + x_32_33
   + x_32_36 + x_32_37 + x_32_39 + x_32_40 + x_32_41 + x_32_42 + x_32_43
   + x_32_45 + x_32_46 + x_32_47 + x_32_48 = 0
 c_2_33: - 2 y_33 + x_2_33 + x_4_33 + x_6_33 + x_7_33 + x_8_33 + x_10_33
   + x_11_33 + x_12_33 + x_13_33 + x_15_33 + x_16_33 + x_17_33 + x_18_33
   + x_19_33 + x_20_33 + x_21_33 + x_22_33 + x_24_33 + x_25_33 + x_26_33
   + x_27_33 + x_28_33 + x_30_33 + x_31_33 + x_32_33 + x_33_34 + x_33_35
   + x_33_36 + x_33_37 + x_33_38 + x_33_39 + x_33_40 + x_33_41 + x_33_48
   = 0
 c_2_34: - 2 y_34 + x_0_34 + x_2_34 + x_4_34 + x_5_34 + x_6_34 + x_7_34
   + x_8_34 + x_10_34 + x_11_34 + x_12_34 + x_14_34 + x_18_34 + x_19_34
   + x_20_34 + x_22_34 + x_23_34 + x_24_34 + x_26_34 + x_28_34 + x_29_34
   + x_30_34 + x_33_34 + x_34_36 + x_34_37 + x_34_38 + x_34_39 + x_34_42
   + x_34_43 + x_34_46 + x_34_47 + x_34_48 = 0
 c_2_35: - 2 y_35 + x_2_35 + x_4_35 + x_5_35 + x_6_35 + x_8_35 + x_10_35
   + x_14_35 + x_18_35 + x_19_35 + x_21_35 + x_23_35 + x_24_35 + x_27_35
   + x_30_35 + x_31_35 + x_33_35 + x_35_36 + x_35_37 + x_35_42 + x_35_43
   + x_35_46 + x_35_47 + x_35_49 = 0
 c_2_36: - 2 y_36 + x_0_36 + x_2_36 + x_3_36 + x_5_36 + x_7_36 + x_8_36
   + x_9_36 + x_10_36 + x_12_36 + x_13_36 + x_15_36 + x_18_36 + x_19_36
   + x_21_36 + x_22_36 + x_23_36 + x_24_36 + x_25_36 + x_27_36 + x_28_36
   + x_29_36 + x_30_36 + x_31_36 + x_32_36 + x_33_36 + x_34_36 + x_35_36
   + x_36_37 + x_36_38 + x_36_39 + x_36_40 + x_36_42 + x_36_43 + x_36_44
   + x_36_45 + x_36_47 + x_36_49 = 0
 c_2_37: - 2 y_37 + x_0_37 + x_1_37 + x_2_37 + x_3_37 + x_4_37 + x_5_37
   + x_6_37 + x_7_37 + x_9_37 + x_10_37 + x_13_37 + x_14_37 + x_15_37
   + x_16_37 + x_17_37 + x_18_37 + x_19_37 + x_20_37 + x_21_37 + x_22_37
   + x_23_37 + x_24_37 + x_27_37 + x_28_37 + x_30_37 + x_32_37 + x_33_37
   + x_34_37 + x_35_37 + x_36_37 + x_37_38 + x_37_40 + x_37_41 + x_37_42
   + x_37_44 + x_37_46 + x_37_47 + x_37_48 + x_37_49 = 0
 c_2_38: - 2 y_38 + x_0_38 + x_1_38 + x_3_38 + x_5_38 + x_8_38 + x_9_38
   + x_10_38 + x_11_38 + x_12_38 + x_13_38 + x_14_38 + x_15_38 + x_16_38
   + x_17_38 + x_19_38 + x_20_38 + x_21_38 + x_22_38 + x_24_38 + x_25_38
   + x_26_38 + x_28_38 + x_29_38 + x_30_38 + x_33_38 + x_34_38 + x_36_38
   + x_37_38 + x_38_39 + x_38_40 + x_38_42 + x_38_43 + x_38_44 + x_38_45
   + x_38_46 + x_38_47 + x_38_49 = 0
 c_2_39: - 2 y_39 + x_0_39 + x_1_39 + x_5_39 + x_7_39 + x_8_39 + x_11_39
   + x_13_39 + x_14_39 + x_15_39 + x_17_39 + x_18_39 + x_19_39 + x_20_39
   + x_21_39 + x_22_39 + x_23_39 + x_24_39 + x_25_39 + x_28_39 + x_29_39
   + x_30_39 + x_31_39 + x_32_39 + x_33_39 + x_34_39 + x_36_39 + x_38_39
   + x_39_40 + x_39_41 + x_39_42 + x_39_44 + x_39_45 + x_39_47 + x_39_48
   + x_39_49 = 0
 c_2_40: - 2 y_40 + x_0_40 + x_1_40 + x_3_40 + x_4_40 + x_5_40 + x_6_40
   + x_7_40 + x_8_40 + x_9_40 + x_10_40 + x_13_40 + x_14_40 + x_15_40
   + x_16_40 + x_17_40 + x_18_40 + x_19_40 + x_21_40 + x_22_40 + x_23_40
   + x_24_40 + x_26_40 + x_27_40 + x_28_40 + x_30_40 + x_31_40 + x_32_40
   + x_33_40 + x_36_40 + x_37_40 + x_38_40 + x_39_40 + x_40_41 + x_40_42
   + x_40_43 + x_40_44 + x_40_45 + x_40_47 + x_40_48 + x_40_49 = 0
 c_2_41: - 2 y_41 + x_0_41 + x_1_41 + x_2_41 + x_7_41 + x_8_41 + x_9_41
   + x_10_41 + x_11_41 + x_12_41 + x_13_41 + x_15_41 + x_16_41 + x_17_41
   + x_18_41 + x_20_41 + x_21_41 + x_23_41 + x_25_41 + x_26_41 + x_28_41
   + x_29_41 + x_31_41 + x_32_41 + x_33_41 + x_37_41 + x_39_41 + x_40_41
   + x_41_44 + x_41_45 + x_41_47 = 0
 c_2_42: - 2 y_42 + x_0_42 + x_2_42 + x_3_42 + x_4_42 + x_5_42 + x_6_42
   + x_8_42 + x_9_42 + x_14_42 + x_15_42 + x_18_42 + x_19_42 + x_20_42
   + x_24_42 + x_25_42 + x_26_42 + x_27_42 + x_28_42 + x_29_42 + x_30_42
   + x_31_42 + x_32_42 + x_34_42 + x_35_42 + x_36_42 + x_37_42 + x_38_42
   + x_39_42 + x_40_42 + x_42_44 + x_42_45 + x_42_46 + x_42_48 + x_42_49
   = 0
 c_2_43: - 2 y_43 + x_0_43 + x_1_43 + x_6_43 + x_8_43 + x_9_43 + x_10_43
   + x_11_43 + x_12_43 + x_14_43 + x_15_43 + x_17_43 + x_19_43 + x_21_43
   + x_22_43 + x_23_43 + x_24_43 + x_26_43 + x_27_43 + x_28_43 + x_30_43
   + x_32_43 + x_34_43 + x_35_43 + x_36_43 + x_38_43 + x_40_43 + x_43_44
   + x_43_45 + x_43_46 + x_43_48 + x_43_49 = 0
 c_2_44: - 2 y_44 + x_0_44 + x_1_44 + x_2_44 + x_4_44 + x_5_44 + x_7_44
   + x_8_44 + x_9_44 + x_11_44 + x_12_44 + x_13_44 + x_14_44 + x_15_44
   + x_16_44 + x_17_44 + x_18_44 + x_19_44 + x_20_44 + x_22_44 + x_23_44
   + x_26_44 + x_27_44 + x_28_44 + x_29_44 + x_30_44 + x_31_44 + x_36_44
   + x_37_44 + x_38_44 + x_39_44 + x_40_44 + x_41_44 + x_42_44 + x_43_44
   + x_44_46 + x_44_47 = 0
 c_2_45: - 2 y_45 + x_0_45 + x_1_45 + x_2_45 + x_3_45 + x_5_45 + x_6_45
   + x_7_45 + x_8_45 + x_9_45 + x_12_45 + x_13_45 + x_14_45 + x_15_45
   + x_16_45 + x_17_45 + x_18_45 + x_20_45 + x_22_45 + x_24_45 + x_25_45
   + x_27_45 + x_28_45 + x_29_45 + x_30_45 + x_31_45 + x_32_45 + x_36_45
   + x_38_45 + x_39_45 + x_40_45 + x_41_45 + x_42_45 + x_43_45 + x_45_47
   + x_45_48 + x_45_49 = 0
 c_2_46: - 2 y_46 + x_0_46 + x_1_46 + x_2_46 + x_3_46 + x_4_46 + x_6_46
   + x_7_46 + x_8_46 + x_9_46 + x_10_46 + x_12_46 + x_13_46 + x_15_46
   + x_19_46 + x_20_46 + x_21_46 + x_22_46 + x_23_46 + x_24_46 + x_25_46
   + x_26_46 + x_28_46 + x_29_46 + x_30_46 + x_32_46 + x_34_46 + x_35_46
   + x_37_46 + x_38_46 + x_42_46 + x_43_46 + x_44_46 + x_46_47 + x_46_48
   + x_46_49 = 0
 c_2_47: - 2 y_47 + x_0_47 + x_3_47 + x_4_47 + x_7_47 + x_9_47 + x_10_47
   + x_13_47 + x_14_47 + x_15_47 + x_16_47 + x_17_47 + x_18_47 + x_20_47
   + x_21_47 + x_23_47 + x_24_47 + x_26_47 + x_27_47 + x_29_47 + x_30_47
   + x_31_47 + x_32_47 + x_34_47 + x_35_47 + x_36_47 + x_37_47 + x_38_47
   + x_39_47 + x_40_47 + x_41_47 + x_44_47 + x_45_47 + x_46_47 + x_47_48
   = 0
 c_2_48: - 2 y_48 + x_0_48 + x_3_48 + x_7_48 + x_8_48 + x_9_48 + x_11_48
   + x_13_48 + x_14_48 + x_15_48 + x_16_48 + x_17_48 + x_18_48 + x_19_48
   + x_20_48 + x_21_48 + x_26_48 + x_27_48 + x_28_48 + x_32_48 + x_33_48
   + x_34_48 + x_37_48 + x_39_48 + x_40_48 + x_42_48 + x_43_48 + x_45_48
   + x_46_48 + x_47_48 + x_48_49 = 0
 c_2_49: - 2 y_49 + x_4_49 + x_6_49 + x_7_49 + x_8_49 + x_13_49 + x_14_49
   + x_15_49 + x_16_49 + x_19_49 + x_20_49 + x_21_49 + x_23_49 + x_27_49
   + x_29_49 + x_30_49 + x_35_49 + x_36_49 + x_37_49 + x_38_49 + x_39_49
   + x_40_49 + x_42_49 + x_43_49 + x_45_49 + x_46_49 + x_48_49 = 0
Bounds
 Constant = 1
Binaries
 y_0 y_1 y_2 y_3 y_4 y_5 y_6 y_7 y_8 y_9 y_10 y_11 y_12 y_13 y_14 y_15 y_16
 y_17 y_18 y_19 y_20 y_21 y_22 y_23 y_24 y_25 y_26 y_27 y_28 y_29 y_30 y_31
 y_32 y_33 y_34 y_35 y_36 y_37 y_38 y_39 y_40 y_41 y_42 y_43 y_44 y_45 y_46
 y_47 y_48 y_49 x_0_1 x_0_2 x_0_3 x_0_4 x_0_6 x_0_8 x_0_10 x_0_11 x_0_12
 x_0_13 x_0_15 x_0_16 x_0_17 x_0_18 x_0_19 x_0_21 x_0_23 x_0_24 x_0_25
 x_0_26 x_0_27 x_0_28 x_0_32 x_0_34 x_0_36 x_0_37 x_0_38 x_0_39 x_0_40
 x_0_41 x_0_42 x_0_43 x_0_44 x_0_45 x_0_46 x_0_47 x_0_48 x_1_2 x_1_3 x_1_4
 x_1_5 x_1_6 x_1_8 x_1_9 x_1_10 x_1_11 x_1_12 x_1_13 x_1_14 x_1_15 x_1_17
 x_1_19 x_1_20 x_1_21 x_1_22 x_1_23 x_1_25 x_1_29 x_1_30 x_1_32 x_1_37
 x_1_38 x_1_39 x_1_40 x_1_41 x_1_43 x_1_44 x_1_45 x_1_46 x_2_3 x_2_4 x_2_6
 x_2_7 x_2_8 x_2_9 x_2_10 x_2_11 x_2_12 x_2_13 x_2_15 x_2_16 x_2_17 x_2_18
 x_2_19 x_2_20 x_2_21 x_2_22 x_2_23 x_2_25 x_2_28 x_2_30 x_2_32 x_2_33
 x_2_34 x_2_35 x_2_36 x_2_37 x_2_41 x_2_42 x_2_44 x_2_45 x_2_46 x_3_6 x_3_7
 x_3_8 x_3_9 x_3_10 x_3_11 x_3_12 x_3_14 x_3_16 x_3_18 x_3_19 x_3_20 x_3_22
 x_3_23 x_3_24 x_3_25 x_3_26 x_3_27 x_3_29 x_3_32 x_3_36 x_3_37 x_3_38
 x_3_40 x_3_42 x_3_45 x_3_46 x_3_47 x_3_48 x_4_5 x_4_6 x_4_7 x_4_8 x_4_9
 x_4_10 x_4_12 x_4_13 x_4_14 x_4_15 x_4_17 x_4_18 x_4_19 x_4_20 x_4_21
 x_4_22 x_4_23 x_4_25 x_4_26 x_4_27 x_4_28 x_4_29 x_4_30 x_4_31 x_4_33
 x_4_34 x_4_35 x_4_37 x_4_40 x_4_42 x_4_44 x_4_46 x_4_47 x_4_49 x_5_7 x_5_8
 x_5_10 x_5_11 x_5_12 x_5_14 x_5_17 x_5_18 x_5_20 x_5_21 x_5_22 x_5_27
 x_5_28 x_5_29 x_5_30 x_5_32 x_5_34 x_5_35 x_5_36 x_5_37 x_5_38 x_5_39
 x_5_40 x_5_42 x_5_44 x_5_45 x_6_7 x_6_8 x_6_10 x_6_13 x_6_16 x_6_17 x_6_18
 x_6_19 x_6_20 x_6_21 x_6_23 x_6_24 x_6_27 x_6_28 x_6_29 x_6_30 x_6_31
 x_6_32 x_6_33 x_6_34 x_6_35 x_6_37 x_6_40 x_6_42 x_6_43 x_6_45 x_6_46
 x_6_49 x_7_8 x_7_9 x_7_13 x_7_15 x_7_16 x_7_17 x_7_18 x_7_20 x_7_21 x_7_22
 x_7_23 x_7_27 x_7_28 x_7_29 x_7_32 x_7_33 x_7_34 x_7_36 x_7_37 x_7_39
 x_7_40 x_7_41 x_7_44 x_7_45 x_7_46 x_7_47 x_7_48 x_7_49 x_8_9 x_8_10
 x_8_11 x_8_12 x_8_13 x_8_14 x_8_17 x_8_18 x_8_19 x_8_20 x_8_22 x_8_24
 x_8_25 x_8_28 x_8_29 x_8_30 x_8_31 x_8_32 x_8_33 x_8_34 x_8_35 x_8_36
 x_8_38 x_8_39 x_8_40 x_8_41 x_8_42 x_8_43 x_8_44 x_8_45 x_8_46 x_8_48
 x_8_49 x_9_10 x_9_11 x_9_12 x_9_13 x_9_14 x_9_16 x_9_17 x_9_18 x_9_19
 x_9_20 x_9_21 x_9_22 x_9_23 x_9_25 x_9_28 x_9_30 x_9_31 x_9_32 x_9_36
 x_9_37 x_9_38 x_9_40 x_9_41 x_9_42 x_9_43 x_9_44 x_9_45 x_9_46 x_9_47
 x_9_48 x_10_12 x_10_15 x_10_16 x_10_17 x_10_18 x_10_19 x_10_20 x_10_21
 x_10_22 x_10_23 x_10_25 x_10_28 x_10_29 x_10_30 x_10_31 x_10_32 x_10_33
 x_10_34 x_10_35 x_10_36 x_10_37 x_10_38 x_10_40 x_10_41 x_10_43 x_10_46
 x_10_47 x_11_12 x_11_13 x_11_14 x_11_16 x_11_17 x_11_18 x_11_19 x_11_21
 x_11_22 x_11_23 x_11_25 x_11_26 x_11_27 x_11_28 x_11_30 x_11_31 x_11_32
 x_11_33 x_11_34 x_11_38 x_11_39 x_11_41 x_11_43 x_11_44 x_11_48 x_12_14
 x_12_15 x_12_16 x_12_17 x_12_19 x_12_20 x_12_22 x_12_25 x_12_29 x_12_30
 x_12_31 x_12_33 x_12_34 x_12_36 x_12_38 x_12_41 x_12_43 x_12_44 x_12_45
 x_12_46 x_13_16 x_13_17 x_13_18 x_13_19 x_13_20 x_13_21 x_13_22 x_13_23
 x_13_24 x_13_26 x_13_27 x_13_28 x_13_29 x_13_30 x_13_32 x_13_33 x_13_36
 x_13_37 x_13_38 x_13_39 x_13_40 x_13_41 x_13_44 x_13_45 x_13_46 x_13_47
 x_13_48 x_13_49 x_14_15 x_14_16 x_14_17 x_14_18 x_14_19 x_14_20 x_14_22
 x_14_23 x_14_25 x_14_26 x_14_27 x_14_28 x_14_29 x_14_30 x_14_31 x_14_32
 x_14_34 x_14_35 x_14_37 x_14_38 x_14_39 x_14_40 x_14_42 x_14_43 x_14_44
 x_14_45 x_14_47 x_14_48 x_14_49 x_15_19 x_15_20 x_15_21 x_15_22 x_15_23
 x_15_24 x_15_25 x_15_26 x_15_27 x_15_28 x_15_29 x_15_30 x_15_31 x_15_32
 x_15_33 x_15_36 x_15_37 x_15_38 x_15_39 x_15_40 x_15_41 x_15_42 x_15_43
 x_15_44 x_15_45 x_15_46 x_15_47 x_15_48 x_15_49 x_16_17 x_16_18 x_16_19
 x_16_22 x_16_23 x_16_24 x_16_26 x_16_28 x_16_29 x_16_31 x_16_32 x_16_33
 x_16_37 x_16_38 x_16_40 x_16_41 x_16_44 x_16_45 x_16_47 x_16_48 x_16_49
 x_17_18 x_17_19 x_17_20 x_17_21 x_17_23 x_17_24 x_17_26 x_17_27 x_17_28
 x_17_29 x_17_30 x_17_31 x_17_32 x_17_33 x_17_37 x_17_38 x_17_39 x_17_40
 x_17_41 x_17_43 x_17_44 x_17_45 x_17_47 x_17_48 x_18_20 x_18_23 x_18_24
 x_18_27 x_18_28 x_18_31 x_18_32 x_18_33 x_18_34 x_18_35 x_18_36 x_18_37
 x_18_39 x_18_40 x_18_41 x_18_42 x_18_44 x_18_45 x_18_47 x_18_48 x_19_20
 x_19_21 x_19_23 x_19_24 x_19_25 x_19_27 x_19_28 x_19_29 x_19_31 x_19_32
 x_19_33 x_19_34 x_19_35 x_19_36 x_19_37 x_19_38 x_19_39 x_19_40 x_19_42
 x_19_43 x_19_44 x_19_46 x_19_48 x_19_49 x_20_21 x_20_22 x_20_23 x_20_24
 x_20_25 x_20_26 x_20_28 x_20_30 x_20_31 x_20_33 x_20_34 x_20_37 x_20_38
 x_20_39 x_20_41 x_20_42 x_20_44 x_20_45 x_20_46 x_20_47 x_20_48 x_20_49
 x_21_24 x_21_26 x_21_27 x_21_28 x_21_30 x_21_31 x_21_32 x_21_33 x_21_35
 x_21_36 x_21_37 x_21_38 x_21_39 x_21_40 x_21_41 x_21_43 x_21_46 x_21_47
 x_21_48 x_21_49 x_22_23 x_22_25 x_22_27 x_22_28 x_22_29 x_22_31 x_22_32
 x_22_33 x_22_34 x_22_36 x_22_37 x_22_38 x_22_39 x_22_40 x_22_43 x_22_44
 x_22_45 x_22_46 x_23_24 x_23_25 x_23_26 x_23_29 x_23_30 x_23_31 x_23_34
 x_23_35 x_23_36 x_23_37 x_23_39 x_23_40 x_23_41 x_23_43 x_23_44 x_23_46
 x_23_47 x_23_49 x_24_28 x_24_29 x_24_30 x_24_33 x_24_34 x_24_35 x_24_36
 x_24_37 x_24_38 x_24_39 x_24_40 x_24_42 x_24_43 x_24_45 x_24_46 x_24_47
 x_25_26 x_25_27 x_25_29 x_25_30 x_25_31 x_25_32 x_25_33 x_25_36 x_25_38
 x_25_39 x_25_41 x_25_42 x_25_45 x_25_46 x_26_28 x_26_29 x_26_30 x_26_31
 x_26_32 x_26_33 x_26_34 x_26_38 x_26_40 x_26_41 x_26_42 x_26_43 x_26_44
 x_26_46 x_26_47 x_26_48 x_27_29 x_27_30 x_27_32 x_27_33 x_27_35 x_27_36
 x_27_37 x_27_40 x_27_42 x_27_43 x_27_44 x_27_45 x_27_47 x_27_48 x_27_49
 x_28_29 x_28_31 x_28_32 x_28_33 x_28_34 x_28_36 x_28_37 x_28_38 x_28_39
 x_28_40 x_28_41 x_28_42 x_28_43 x_28_44 x_28_45 x_28_46 x_28_48 x_29_30
 x_29_31 x_29_32 x_29_34 x_29_36 x_29_38 x_29_39 x_29_41 x_29_42 x_29_44
 x_29_45 x_29_46 x_29_47 x_29_49 x_30_31 x_30_33 x_30_34 x_30_35 x_30_36
 x_30_37 x_30_38 x_30_39 x_30_40 x_30_42 x_30_43 x_30_44 x_30_45 x_30_46
 x_30_47 x_30_49 x_31_32 x_31_33 x_31_35 x_31_36 x_31_39 x_31_40 x_31_41
 x_31_42 x_31_44 x_31_45 x_31_47 x_32_33 x_32_36 x_32_37 x_32_39 x_32_40
 x_32_41 x_32_42 x_32_43 x_32_45 x_32_46 x_32_47 x_32_48 x_33_34 x_33_35
 x_33_36 x_33_37 x_33_38 x_33_39 x_33_40 x_33_41 x_33_48 x_34_36 x_34_37
 x_34_38 x_34_39 x_34_42 x_34_43 x_34_46 x_34_47 x_34_48 x_35_36 x_35_37
 x_35_42 x_35_43 x_35_46 x_35_47 x_35_49 x_36_37 x_36_38 x_36_39 x_36_40
 x_36_42 x_36_43 x_36_44 x_36_45 x_36_47 x_36_49 x_37_38 x_37_40 x_37_41
 x_37_42 x_37_44 x_37_46 x_37_47 x_37_48 x_37_49 x_38_39 x_38_40 x_38_42
 x_38_43 x_38_44 x_38_45 x_38_46 x_38_47 x_38_49 x_39_40 x_39_41 x_39_42
 x_39_44 x_39_45 x_39_47 x_39_48 x_39_49 x_40_41 x_40_42 x_40_43 x_40_44
 x_40_45 x_40_47 x_40_48 x_40_49 x_41_44 x_41_45 x_41_47 x_42_44 x_42_45
 x_42_46 x_42_48 x_42_49 x_43_44 x_43_45 x_43_46 x_43_48 x_43_49 x_44_46
 x_44_47 x_45_47 x_45_48 x_45_49 x_46_47 x_46_48 x_46_49 x_47_48 x_48_49
End
